
c--------------------------------------------------------------
c	Ferhat Erata
c	CPSC 454/554
c	Tue Nov 26 2019	21:16:52
c--------------------------------------------------------------
s SATISFIABLE
c model: -1 -2 -3 4 -5 -6 -7 -8 -9 -10 -11 -12 13 -14 -15 -16 -17 -18 -19 -20 -21 -22 -23 -24 -25 -26 -27 -28 -29 -30 -31 -32 -33 -34 -35 -36 -37 -38 -39 -40 -41 -42 -43 -44 -45 -46 -47 -48 -49 -50 -51 -52 -53 -54 -55 -56 -57 -58 -59 -60 -61 -62 -63 -64 -65 -66 -67 -68 -69 -70 
c--------------------------------------------------------------
c statistics of ../../bench1/sat/70-100.cnf:
c [ mem_used: 4733, conflicts: 0, max_lemmas: 2000 ]
c--------------------------------------------------------------
c	Normal termination.
